50
    1   937   937
    2   771   771
    3   253   253
    4   876   876
    5   675   675
    6   877   877
    7   772   772
    8   705   705
    9   165   165
   10   991   991
   11   219   219
   12   782   782
   13   254   254
   14   271   271
   15   957   957
   16   633   633
   17   326   326
   18   460   460
   19   867   867
   20   832   832
   21   357   357
   22   148   148
   23    68    68
   24   336   336
   25    53    53
   26   680   680
   27   317   317
   28   559   559
   29    94    94
   30   268   268
   31   214   214
   32   449   449
   33   958   958
   34   179   179
   35   593   593
   36    47    47
   37   938   938
   38   896   896
   39   815   815
   40   951   951
   41   470   470
   42   543   543
   43   545   545
   44   532   532
   45   205   205
   46   689   689
   47   232   232
   48   173   173
   49   638   638
   50   390   390
17306
